32	0

0	1	2
10	1	3
5	1	4
5	2	5	6
8	2	7	9
2	2	7	8
6	2	10	11
10	2	9	11
3	1	10
2	2	12	13
4	2	12	13
4	2	15	18
1	1	14
3	2	15	18
4	1	16
1	1	17
1	2	19	20
6	2	19	20
8	2	21	22
8	2	21	22
10	1	23
2	1	23
10	2	24	25
5	2	26	27
5	2	26	27
3	2	28	30
8	2	29	30
10	1	29
9	1	31
8	1	31
5	1	32
0	0
